Maximize
  obj: -8 x0 -5 x1 +8 x2 +3 x3 +2 x4 +1 x5 -8 x6 -7 x7 -5 x8 -8 x9 +127 x10 +73 x11 +128 x12 -146 x13 -167 x14 -131 x15 +132 x16 +73 x17 -132 x18 +33 x19 
Subject to
  c1: +0 x0 -1 x1 +6 x2 +0 x3 +0 x4 +0 x5 +12 x6 +4 x7 +0 x8 +0 x9 +17 x10 <= 80
  c2: +3 x0 -1 x1 +0 x2 +0 x3 +0 x4 +9 x5 +7 x6 +0 x7 +0 x8 +17 x9 +8 x11 <= 92
  c3: +0 x0 +14 x1 +0 x2 +0 x3 +0 x4 +0 x5 +0 x6 +3 x7 +0 x8 +6 x9 +12 x12 <= 92
  c4: +0 x0 +15 x1 +8 x2 +0 x3 +14 x4 +0 x5 +0 x6 +0 x7 +17 x8 +0 x9 +20 x13 <= 81
  c5: +0 x0 +0 x1 +12 x2 +0 x3 +0 x4 +0 x5 +8 x6 +0 x7 +0 x8 +0 x9 -1 x14 <= 99
  c6: +3 x0 +0 x1 +0 x2 +0 x3 +0 x4 +0 x5 +18 x6 +0 x7 +0 x8 +0 x9 +15 x15 <= 93
  c7: -1 x0 +2 x1 +6 x2 +0 x3 +19 x4 +0 x5 +2 x6 +3 x7 +0 x8 +3 x9 +19 x16 <= 77
  c8: +0 x0 +4 x1 -1 x2 +0 x3 +0 x4 +0 x5 +0 x6 +0 x7 +0 x8 +0 x9 +14 x17 <= 52
  c9: +0 x0 +15 x1 +0 x2 +0 x3 +0 x4 +10 x5 +4 x6 +0 x7 +0 x8 +9 x9 +6 x18 <= 89
  c10: +12 x0 +0 x1 +1 x2 +0 x3 +0 x4 +19 x5 +0 x6 +0 x7 +0 x8 +0 x9 +3 x19 <= 65
  c11: +7 x0 +18 x1 +6 x2 +0 x3 +0 x4 +7 x5 +7 x6 +2 x7 +13 x8 <= 80
  c12: +0 x0 +3 x1 +9 x2 +0 x3 +0 x4 +10 x5 +0 x6 +9 x7 +0 x8 <= 92
  c13: +0 x0 +7 x1 +0 x2 +0 x3 +0 x4 +0 x5 +4 x6 +15 x7 +0 x8 <= 92
  c14: +0 x0 +0 x1 +0 x2 +3 x3 +10 x4 +0 x5 +0 x6 +0 x7 +0 x8 <= 81
  c15: +0 x0 +20 x1 +0 x2 +19 x3 +0 x4 +1 x5 +0 x6 +0 x7 +0 x8 <= 99
  c16: +0 x0 +0 x1 +2 x2 +0 x3 +4 x4 +0 x5 +6 x6 +0 x7 +0 x8 <= 93
  c17: +1 x0 +0 x1 +2 x2 +0 x3 +0 x4 +0 x5 +8 x6 +11 x7 +2 x8 <= 77
  c18: +0 x0 +0 x1 +1 x2 +0 x3 +0 x4 +0 x5 +9 x6 -1 x7 +0 x8 <= 52
  c19: -1 x0 +0 x1 +8 x2 +0 x3 +7 x4 +0 x5 +3 x6 +0 x7 +9 x8 <= 89
  c20: +4 x0 +7 x1 +0 x2 +2 x3 +0 x4 +4 x5 +7 x6 +0 x7 +0 x8 <= 65
  c21: + x10 + x11 + x12 + x13 + x14 + x15 + x16 + x17 + x18 + x19 <= 3.333333
Binary
 x10
 x11
 x12
 x13
 x14
 x15
 x16
 x17
 x18
 x19
End
